77372.0
1705
0 1 2 3 5 6 7 9 10 11 12 13 16 17 18 19 20 21 22 24 25 26 27 28 30 31 34 35 36 37 38 39 41 44 45 47 48 49 50 51 52 53 55 56 57 61 62 64 68 70 71 72 76 78 80 86 87 88 89 90 91 93 96 97 99 